sat
(:max-memory          18.06
 :memory              17.93
 :nlsat-conflicts     1
 :nlsat-learned-added 1
 :nlsat-propagations  11
 :nlsat-stages        6
 :num-allocs          5686
 :rlimit-count        1336
 :time                0.00
 :total-time          0.01)
